163	32	4	136	
10	10	10	10

0	0	0	0	0	0	2	1	2
1	1	0	1	1	10	1	3
2	0	1	4	5	6	1	3
3	3	7	0	4	7	1	4
4	6	4	0	5	9	1	5
5	0	6	3	2	8	1	6
6	8	0	3	2	1	1	7
7	5	4	0	6	2	1	8
8	4	4	0	6	1	1	9
9	2	4	0	5	7	1	10
10	5	0	5	2	4	1	11
11	0	5	2	4	4	1	12
12	5	0	5	2	6	2	16	13
13	4	3	0	4	3	1	14
14	3	5	0	4	6	1	15
15	7	2	5	0	8	1	17
16	5	4	0	3	10	1	17
17	2	6	5	0	2	2	21	18
18	0	4	2	3	1	2	20	19
19	5	0	2	5	5	1	22
20	2	0	4	3	5	1	22
21	0	3	3	6	10	1	22
22	0	3	4	4	5	1	23
23	7	0	5	5	7	1	24
24	2	4	6	0	1	1	25
25	2	0	4	5	10	1	26
26	1	4	5	0	3	3	30	28	27
27	3	7	0	3	3	1	29
28	0	4	7	4	9	1	29
29	0	3	5	7	3	1	31
30	6	1	4	0	7	1	31
31	0	0	0	0	0	0
